\ LP format - for model browsing. Use MPS format to capture full model detail.
Minimize
  3.209225080713865 x[0,1,1] + 12.65698929149337 x[0,2,1]
   + 6.428629089710375 x[0,3,1] + 18.25297697251097 x[0,4,1]
   + 15.03050653245813 x[0,5,1] + 11.77940529138823 x[1,2,1]
   + 5.562447359351713 x[1,3,1] + 16.08379167424117 x[1,4,1]
   + 13.50428083025146 x[1,5,1] + 3.209225080713865 x[1,6,1]
   + 11.77940529138823 x[2,1,1] + 6.327362962003472 x[2,3,1]
   + 8.317375058923071 x[2,4,1] + 3.540413457714997 x[2,5,1]
   + 12.65698929149337 x[2,6,1] + 5.562447359351713 x[3,1,1]
   + 6.327362962003472 x[3,2,1] + 12.21533172422947 x[3,4,1]
   + 8.627095666842605 x[3,5,1] + 6.428629089710375 x[3,6,1]
   + 16.08379167424117 x[4,1,1] + 8.317375058923071 x[4,2,1]
   + 12.21533172422947 x[4,3,1] + 4.820929129591633 x[4,5,1]
   + 18.25297697251097 x[4,6,1] + 13.50428083025146 x[5,1,1]
   + 3.540413457714997 x[5,2,1] + 8.627095666842605 x[5,3,1]
   + 4.820929129591633 x[5,4,1] + 15.03050653245813 x[5,6,1]
Subject To
 Start_1: x[0,1,1] + x[0,2,1] + x[0,3,1] + x[0,4,1] + x[0,5,1] + x[0,6,1]
   = 1
 Finish_1: x[0,6,1] + x[1,6,1] + x[2,6,1] + x[3,6,1] + x[4,6,1] + x[5,6,1]
   = 1
 Visit_1: x[0,1,1] + x[2,1,1] + x[3,1,1] + x[4,1,1] + x[5,1,1] = 1
 Visit_2: x[0,2,1] + x[1,2,1] + x[3,2,1] + x[4,2,1] + x[5,2,1] = 1
 Visit_3: x[0,3,1] + x[1,3,1] + x[2,3,1] + x[4,3,1] + x[5,3,1] = 1
 Visit_4: x[0,4,1] + x[1,4,1] + x[2,4,1] + x[3,4,1] + x[5,4,1] = 1
 Visit_5: x[0,5,1] + x[1,5,1] + x[2,5,1] + x[3,5,1] + x[4,5,1] = 1
 Leave_1_1: x[0,1,1] - x[1,2,1] - x[1,3,1] - x[1,4,1] - x[1,5,1] - x[1,6,1]
   + x[2,1,1] + x[3,1,1] + x[4,1,1] + x[5,1,1] = 0
 Leave_2_1: x[0,2,1] + x[1,2,1] - x[2,1,1] - x[2,3,1] - x[2,4,1] - x[2,5,1]
   - x[2,6,1] + x[3,2,1] + x[4,2,1] + x[5,2,1] = 0
 Leave_3_1: x[0,3,1] + x[1,3,1] + x[2,3,1] - x[3,1,1] - x[3,2,1] - x[3,4,1]
   - x[3,5,1] - x[3,6,1] + x[4,3,1] + x[5,3,1] = 0
 Leave_4_1: x[0,4,1] + x[1,4,1] + x[2,4,1] + x[3,4,1] - x[4,1,1] - x[4,2,1]
   - x[4,3,1] - x[4,5,1] - x[4,6,1] + x[5,4,1] = 0
 Leave_5_1: x[0,5,1] + x[1,5,1] + x[2,5,1] + x[3,5,1] + x[4,5,1] - x[5,1,1]
   - x[5,2,1] - x[5,3,1] - x[5,4,1] - x[5,6,1] = 0
 R12: - 32 x[1,2,1] - u[1,1] + u[2,1] >= -25
 R13: - 32 x[1,3,1] - u[1,1] + u[3,1] >= -27
 R14: - 32 x[1,4,1] - u[1,1] + u[4,1] >= -26
 R15: - 32 x[1,5,1] - u[1,1] + u[5,1] >= -24
 R16: - 32 x[2,1,1] + u[1,1] - u[2,1] >= -26
 R17: - 32 x[2,3,1] - u[2,1] + u[3,1] >= -27
 R18: - 32 x[2,4,1] - u[2,1] + u[4,1] >= -26
 R19: - 32 x[2,5,1] - u[2,1] + u[5,1] >= -24
 R20: - 32 x[3,1,1] + u[1,1] - u[3,1] >= -26
 R21: - 32 x[3,2,1] + u[2,1] - u[3,1] >= -25
 R22: - 32 x[3,4,1] - u[3,1] + u[4,1] >= -26
 R23: - 32 x[3,5,1] - u[3,1] + u[5,1] >= -24
 R24: - 32 x[4,1,1] + u[1,1] - u[4,1] >= -26
 R25: - 32 x[4,2,1] + u[2,1] - u[4,1] >= -25
 R26: - 32 x[4,3,1] + u[3,1] - u[4,1] >= -27
 R27: - 32 x[4,5,1] - u[4,1] + u[5,1] >= -24
 R28: - 32 x[5,1,1] + u[1,1] - u[5,1] >= -26
 R29: - 32 x[5,2,1] + u[2,1] - u[5,1] >= -25
 R30: - 32 x[5,3,1] + u[3,1] - u[5,1] >= -27
 R31: - 32 x[5,4,1] + u[4,1] - u[5,1] >= -26
 R32: u[1,1] >= 6
 R33: u[1,1] <= 32
 R34: u[2,1] >= 7
 R35: u[2,1] <= 32
 R36: u[3,1] >= 5
 R37: u[3,1] <= 32
 R38: u[4,1] >= 6
 R39: u[4,1] <= 32
 R40: u[5,1] >= 8
 R41: u[5,1] <= 32
Bounds
Binaries
 x[0,1,1] x[0,2,1] x[0,3,1] x[0,4,1] x[0,5,1] x[0,6,1] x[1,2,1] x[1,3,1]
 x[1,4,1] x[1,5,1] x[1,6,1] x[2,1,1] x[2,3,1] x[2,4,1] x[2,5,1] x[2,6,1]
 x[3,1,1] x[3,2,1] x[3,4,1] x[3,5,1] x[3,6,1] x[4,1,1] x[4,2,1] x[4,3,1]
 x[4,5,1] x[4,6,1] x[5,1,1] x[5,2,1] x[5,3,1] x[5,4,1] x[5,6,1]
End
